110740
77, 44, 83, 68, 8, 58, 9, 20, 67, 5, 48, 24, 22, 26, 19, 76, 75, 53, 74, 59, 82, 45, 73, 64, 1, 10, 29, 14, 70, 62, 80, 36, 66, 71, 54, 46, 13, 37, 18, 21, 32, 40, 11, 16, 33, 27, 7, 56, 17, 51, 38, 2, 30, 35, 28, 79, 6, 61, 15, 42, 55, 12, 3, 57, 34, 49, 47, 60, 81, 72, 43, 23, 25, 69, 78, 41, 52, 39, 63, 4, 50, 65, 31
